% demand
num_movements = 24;
loading_factor = [1350, 1450, 1550, 1550, 1200, 1350, 1600, 1950, 850, 1100, 1750, 1050, 1550, 2000, 1650, 1300, 1300, 1050, 1500, 1250, 1350, 1600, 1300, 1500];
pickup_time = [0, 0, 0, 1, 1, 1, 3, 4, 4, 4, 4, 4, 5, 5, 6, 6, 7, 9, 9, 10, 11, 11, 11, 11];
delivery_time = [2, 1, 4, 4, 3, 2, 4, 5, 5, 5, 5, 5, 7, 9, 9, 9, 9, 10, 10, 12, 12, 12, 12, 12];

% transporter definition
total_capacity = 7000;
num_decks = 3;
capacity = [3000, 1000, 3000];

% ways out of decks
num_ways_out = 1;
paths_out = array3d(decks, ways_out, decks, [
% ways out of deck d1
2, 3, 0, 

% ways out of deck d2
3, 0, 0, 

% ways out of deck d3
0, 0, 0,	

]);

